260	52	4	254	
10	10	10	10

0	0	0	0	0	0	2	1	2
1	1	10	10	1	3	1	3
2	6	3	1	6	8	1	6
3	2	9	3	5	1	1	4
4	5	3	4	3	9	1	5
5	6	4	9	4	4	1	8
6	7	9	10	8	3	1	7
7	5	5	2	3	2	1	9
8	1	9	4	8	9	1	10
9	9	3	3	1	3	1	13
10	3	6	7	9	10	1	11
11	3	7	5	2	6	1	12
12	3	10	4	1	4	1	14
13	7	6	3	2	2	2	17	50
14	10	6	6	1	9	1	15
15	3	10	10	9	4	1	16
16	9	2	8	5	7	1	18
17	2	8	1	10	5	1	19
18	5	1	3	9	7	1	21
19	6	7	3	9	6	1	20
20	5	9	2	2	1	2	24	30
21	9	4	6	10	4	1	22
22	6	5	9	8	5	1	23
23	7	8	5	6	6	1	24
24	5	9	4	2	7	1	25
25	3	2	2	3	7	1	26
26	8	4	6	6	2	1	27
27	7	4	4	6	2	1	28
28	9	8	2	3	1	1	29
29	1	5	6	4	7	1	31
30	8	10	9	8	2	1	34
31	8	6	3	1	1	1	32
32	1	8	8	8	7	1	33
33	3	1	8	1	8	1	35
34	3	8	9	1	2	1	42
35	2	4	9	5	5	2	36	42
36	2	7	4	4	2	1	37
37	10	6	8	7	2	1	38
38	6	9	3	10	1	1	39
39	6	7	7	3	5	1	40
40	8	4	7	6	5	1	41
41	6	4	7	7	5	1	43
42	5	4	9	3	10	1	44
43	5	9	2	5	10	1	45
44	9	2	1	3	9	1	49
45	6	8	6	6	8	1	46
46	9	1	7	4	4	1	47
47	10	4	3	8	10	1	48
48	5	10	5	9	10	1	51
49	8	8	6	6	9	1	51
50	9	7	1	1	1	1	51
51	0	0	0	0	0	0
